============================[ Problem Statistics ]=============================|                                                                             ||  Number of variables:          4242                                         ||  Number of clauses:           10453                                         ||  Parse time:                   0.84 s                                       ||                                                                             |============================[ Search Statistics ]==============================| Conflicts |          ORIGINAL         |          LEARNT          | Progress ||           |    Vars  Clauses Literals |    Limit  Clauses Lit/Cl |          |===============================================================================|       100 |    1591     6658  1340279 |     2441      100     53 | 62.501 % ||       250 |    1591     6658  1340279 |     2685      250     75 | 62.495 % |===============================================================================restarts              : 4conflicts             : 452            (357 /sec)decisions             : 812            (0.00 % random) (641 /sec)propagations          : 13751          (10853 /sec)conflict literals     : 38314          (94.46 % deleted)CPU time              : 1.267 sSATISFIABLE